n = 80;
capacity = 100;
size = [79, 77, 76, 75, 75, 74, 73, 71, 71, 71, 68, 68, 67, 67, 67, 66, 65, 65, 64, 64, 63, 61, 60, 60, 59, 58, 58, 57, 57, 56, 55, 55, 54, 54, 54, 52, 49, 48, 47, 47, 46, 44, 44, 43, 42, 42, 41, 41, 38, 37, 37, 37, 36, 35, 34, 34, 34, 33, 33, 32, 32, 30, 29, 28, 27, 27, 26, 26, 26, 25, 25, 25, 25, 24, 22, 22, 21, 21, 21, 20];
